sat
(model
(define-fun i_0_0 () Real 5.0)
(define-fun i_0_1 () Real (/ 3563588637623335796527293330461126 1371476897004112666071645086444375))
(define-fun i_0_2 () Real 1.0)
(define-fun i_0_3 () Real (/ 14731223685365927291626184334903 10971815176032901328573160691555))
(define-fun A_x_0_0 () Real (/ (- 191906102911410669967480185359989096515873) 68573844850205633303582254322218750000000))
(define-fun A_x_0_1 () Real (/ (- 37539806659450696392951468575923391018583) 17143461212551408325895563580554687500000))
(define-fun A_x_0_2 () Real (/ (- 8656263814694018846447028194208369783599) 274295379400822533214329017288875000000000))
(define-fun A_x_0_3 () Real (/ 61610281501457939528024317705170698403019 13714768970041126660716450864443750000000))
(define-fun A_d_0_0 () Int 0)
(define-fun A_d_0_1 () Int 0)
(define-fun A_d_0_2 () Int 0)
(define-fun A_d_0_3 () Int 1)
(define-fun A_o_0_0 () Real 0.0)
(define-fun A_o_0_1 () Real 0.0)
(define-fun A_o_0_2 () Real 0.0)
(define-fun A_o_0_3 () Real (/ 61610281501457939528024317705170698403019 13714768970041126660716450864443750000000))
(define-fun A_x_1_0 () Real (/ 429627359609837729338111496190456075750579660033 137147689700411266607164508644437500000000000000))
(define-fun A_x_1_1 () Real (/ (- 1869002472216626868171984338828609089840782177971) 6857384485020563330358225432221875000000000000000))
(define-fun A_x_1_2 () Real (/ (- 788649459068464859464846870995396299922462232329) 685738448502056333035822543222187500000000000000))
(define-fun A_x_1_3 () Real (/ 774456760916105960287090693368980313874602314061 274295379400822533214329017288875000000000000000))
(define-fun A_d_1_0 () Int 1)
(define-fun A_d_1_1 () Int 0)
(define-fun A_d_1_2 () Int 0)
(define-fun A_d_1_3 () Int 1)
(define-fun A_o_1_0 () Real (/ 429627359609837729338111496190456075750579660033 137147689700411266607164508644437500000000000000))
(define-fun A_o_1_1 () Real 0.0)
(define-fun A_o_1_2 () Real 0.0)
(define-fun A_o_1_3 () Real (/ 774456760916105960287090693368980313874602314061 274295379400822533214329017288875000000000000000))
(define-fun A_x_2_0 () Real (/ 35164994580694272721067063927463728496364026799062671 5485907588016450664286580345777500000000000000000000))
(define-fun A_x_2_1 () Real (/ 17855374033724752150639499812371028657135110725428969317 27429537940082253321432901728887500000000000000000000000))
(define-fun A_x_2_2 () Real (/ (- 295825804170529132868298317889217851612774851251419927) 1371476897004112666071645086444375000000000000000000000))
(define-fun A_A_o_0_3_0_d_3_0 () Int 0)
(define-fun A_A_o_1_3_0_d_3_0 () Int 0)
(define-fun A_x_3_0 () Real 0.0)
(define-fun A_x_3_1 () Real (/ (- 157969598869746611454695819824947613824685023269884385683) 27429537940082253321432901728887500000000000000000000000))
(define-fun A_x_3_2 () Real (/ (- 9087074449344097313135064299755149975703781551017087677) 1371476897004112666071645086444375000000000000000000000))
(define-fun A_o_0_3_0 () Real (/ 35164994580694272721067063927463728496364026799062671 5485907588016450664286580345777500000000000000000000))
(define-fun A_o_1_3_0 () Real (/ 35164994580694272721067063927463728496364026799062671 5485907588016450664286580345777500000000000000000000))
(define-fun A_o_3_0 () Int 1)
(define-fun A_o_3_1 () Int 0)
(define-fun A_o_3_2 () Int 0)
(define-fun B_x_0_0 () Real (/ 184853568804795136075438992716847347046751 34286922425102816651791127161109375000000))
(define-fun B_x_0_1 () Real 0.0)
(define-fun B_x_0_2 () Real (/ 178734393291598105686064685205513337060097 34286922425102816651791127161109375000000))
(define-fun B_x_0_3 () Real (/ 12327470104149865277346947805061776223223 2742953794008225332143290172888750000000))
(define-fun B_d_0_0 () Int 1)
(define-fun B_d_0_1 () Int 0)
(define-fun B_d_0_2 () Int 1)
(define-fun B_d_0_3 () Int 1)
(define-fun B_o_0_0 () Real (/ 184853568804795136075438992716847347046751 34286922425102816651791127161109375000000))
(define-fun B_o_0_1 () Real 0.0)
(define-fun B_o_0_2 () Real (/ 178734393291598105686064685205513337060097 34286922425102816651791127161109375000000))
(define-fun B_o_0_3 () Real (/ 12327470104149865277346947805061776223223 2742953794008225332143290172888750000000))
(define-fun B_x_1_0 () Real (/ 1246644264262843033751205519441887099278318708983 342869224251028166517911271611093750000000000000))
(define-fun B_x_1_1 () Real (/ 3333215798860463527680431966473472847508840932701 6857384485020563330358225432221875000000000000000))
(define-fun B_x_1_2 () Real (/ 7936103374891183977717582572578598705220528142731 3428692242510281665179112716110937500000000000000))
(define-fun B_x_1_3 () Real (/ (- 20198598129454573993053188303176854271058468172707) 6857384485020563330358225432221875000000000000000))
(define-fun B_d_1_0 () Int 1)
(define-fun B_d_1_1 () Int 1)
(define-fun B_d_1_2 () Int 1)
(define-fun B_d_1_3 () Int 0)
(define-fun B_o_1_0 () Real (/ 1246644264262843033751205519441887099278318708983 342869224251028166517911271611093750000000000000))
(define-fun B_o_1_1 () Real (/ 3333215798860463527680431966473472847508840932701 6857384485020563330358225432221875000000000000000))
(define-fun B_o_1_2 () Real (/ 7936103374891183977717582572578598705220528142731 3428692242510281665179112716110937500000000000000))
(define-fun B_o_1_3 () Real 0.0)
(define-fun B_x_2_0 () Real (/ 12422314682360023946272508537048897330406905203559954449 8571730606275704162947781790277343750000000000000000000))
(define-fun B_x_2_1 () Real (/ 582875462816465608539855381883930718358519069788817994487 342869224251028166517911271611093750000000000000000000000))
(define-fun B_x_2_2 () Real (/ 582875462816465608539855381883930718358519069788817994487 342869224251028166517911271611093750000000000000000000000))
(define-fun B_B_o_0_3_0_d_3_0 () Int 1)
(define-fun B_B_o_1_3_0_d_3_0 () Int 0)
(define-fun B_x_3_0 () Real (/ (- 85982875522064650688955040401974825142242861646419816527) 342869224251028166517911271611093750000000000000000000000))
(define-fun B_x_3_1 () Real 0.0)
(define-fun B_x_3_2 () Real 0.0)
(define-fun B_o_0_3_0 () Real (/ 582875462816465608539855381883930718358519069788817994487 342869224251028166517911271611093750000000000000000000000))
(define-fun B_o_1_3_0 () Real (/ 582875462816465608539855381883930718358519069788817994487 342869224251028166517911271611093750000000000000000000000))
(define-fun B_o_3_0 () Int 0)
(define-fun B_o_3_1 () Int 1)
(define-fun B_o_3_2 () Int 1)
(define-fun E_x_0_0 () Real 1.0)
(define-fun E_x_0_1 () Real (- 1.0))
(define-fun E_x_0_2 () Real (- 1.0))
(define-fun E_dg_0_0 () Int 1)
(define-fun E_dl_0_0 () Int 0)
(define-fun E_dg_0_1 () Int 0)
(define-fun E_dl_0_1 () Int 1)
(define-fun E_dg_0_2 () Int 0)
(define-fun E_dl_0_2 () Int 1)
)
expr::ExprManager::EQUAL, 31
expr::ExprManager::LEQ, 185
expr::ExprManager::LT, 12
expr::ExprManager::MULT, 184
expr::ExprManager::PLUS, 100
expr::ExprManager::UMINUS, 147
expr::ExprManager::VARIABLE:integer type, 32
expr::ExprManager::VARIABLE:real type, 55
FirstOrderModel::constantTermsCount, 0
FirstOrderModel::functionTermsCount, 0
FirstOrderModel::mergesCount, 56
FirstOrderModel::termsCount, 76
Instantiate::Duplicate_Inst, 0
Instantiate::Duplicate_Inst_Entailed, 0
Instantiate::Duplicate_Inst_Eq, 0
Instantiate::Duplicate_Inst_Model_True, 0
Instantiate::Instantiations_Total, 0
QuantConflictFind::Entailment_Checks, 0
QuantConflictFind::Inst_Rounds, 0
QuantifiersEngine::Instantiations_Auto_Gen, 0
QuantifiersEngine::Instantiations_Cbqi, 0
QuantifiersEngine::Instantiations_Fmf_Exh, 0
QuantifiersEngine::Instantiations_Fmf_Mbqi, 0
QuantifiersEngine::Instantiations_Guess, 0
QuantifiersEngine::Instantiations_Qcf_Conflict, 0
QuantifiersEngine::Instantiations_Qcf_Prop, 0
QuantifiersEngine::Instantiations_Rewrite_Rules, 0
QuantifiersEngine::Instantiations_User_Patterns, 0
QuantifiersEngine::Multi_Trigger_Instantiations, 0
QuantifiersEngine::Num_Quantifiers, 0
QuantifiersEngine::Reductions_Alpha_Equivalence, 0
QuantifiersEngine::Rounds_Instantiation_Full, 0
QuantifiersEngine::Rounds_Instantiation_Last_Call, 0
QuantifiersEngine::Triggers, 0
QuantifiersEngine::Triggers_Multi, 0
QuantifiersEngine::Triggers_Simple, 0
SharedTermsDatabase::constantTermsCount, 0
SharedTermsDatabase::functionTermsCount, 16
SharedTermsDatabase::mergesCount, 105
SharedTermsDatabase::termsCount, 76
TheoryEngine::combineTheoriesTime, 0.000018
decision::jh::giveup, 0
decision::jh::helpfulness, 84
decision::jh::time, 0.001529
preprocessing::apply-substs, 0.046781
preprocessing::apply-to-const, 0.000000
preprocessing::bool-to-bv, 0.000000
preprocessing::bv-abstraction, 0.000000
preprocessing::bv-ackermann, 0.000000
preprocessing::bv-eager-atoms, 0.000000
preprocessing::bv-gauss, 0.000000
preprocessing::bv-intro-pow2, 0.000000
preprocessing::bv-to-bool, 0.000000
preprocessing::ext-rew-pre, 0.000000
preprocessing::global-negate, 0.000000
preprocessing::int-to-bv, 0.000000
preprocessing::ite-removal, 0.001991
preprocessing::ite-simp, 0.000000
preprocessing::miplib-trick, 0.000000
preprocessing::nl-ext-purify, 0.000000
preprocessing::non-clausal-simp, 0.058671
preprocessing::passes::BVToBool::NumAtomsLifted, 0
preprocessing::passes::BVToBool::NumTermsForcedLifted, 0
preprocessing::passes::BVToBool::NumTermsLifted, 0
preprocessing::passes::BoolToBV::NumIteToBvite, 0
preprocessing::passes::ITESimp::ArithSubstitutionsAdded, 0
preprocessing::passes::MipLibTrick::numMiplibAssertionsRemoved, 0
preprocessing::passes::NonClausalSimp::NumConstantProps, 0
preprocessing::pseudo-boolean-processor, 0.000000
preprocessing::quantifier-macros, 0.000000
preprocessing::quantifiers-preprocess, 0.000075
preprocessing::real-to-int, 0.000000
preprocessing::rewrite, 0.000000
preprocessing::sep-skolem-emp, 0.000000
preprocessing::sort-inference, 0.000000
preprocessing::static-learning, 0.006702
preprocessing::sygus-abduct, 0.000000
preprocessing::sygus-infer, 0.000000
preprocessing::sym-break, 0.000000
preprocessing::synth-rr, 0.000000
preprocessing::theory-preprocess, 0.022314
preprocessing::unconstrained-simplifier, 0.000000
preprocessor::number of unconstrained elims, 0
proof::ProofManager::proofProductionTime, 0.000000
prop::theoryproxy::replayedDecisions, 0
sat::clauses_literals, 0
sat::conflicts, 4
sat::decisions, 84
sat::learnts_literals, 311
sat::max_literals, 24
sat::propagations, 345
sat::rnd_decisions, 0
sat::starts, 1
sat::tot_literals, 17
smt::SmtEngine::checkModelTime, 0.000000
smt::SmtEngine::checkUnsatCoreTime, 0.000000
smt::SmtEngine::cnfConversionTime, 0.030948
smt::SmtEngine::definitionExpansionTime, 0.002254
smt::SmtEngine::lfscCheckProofTime, 0.000000
smt::SmtEngine::numAssertionsPostITERemoval, 229
smt::SmtEngine::numAssertionsPreITERemoval, 229
smt::SmtEngine::numConstantProps, 0
smt::SmtEngine::processAssertionsTime, 0.170835
smt::SmtEngine::proofsSize, 0
smt::SmtEngine::pushPopTime, 0.000000
smt::SmtEngine::resourceUnitsUsed, 17608
smt::SmtEngine::simplifiedToFalse, 0
smt::SmtEngine::solveTime, 7.822199
theory::QuantifiersEngine::time, 0.000019
theory::QuantifiersEngine::time_ematching, 0.000000
theory::QuantifiersEngine::time_qcf, 0.000000
theory::arith::ArithCongruenceManager::constantTermsCount, 0
theory::arith::ArithCongruenceManager::functionTermsCount, 16
theory::arith::ArithCongruenceManager::mergesCount, 130
theory::arith::ArithCongruenceManager::termsCount, 76
theory::arith::AssertLowerConflicts, 0
theory::arith::AssertUpperConflicts, 0
theory::arith::AuxiliaryVariables, 123
theory::arith::DisequalityConflicts, 0
theory::arith::DisequalitySplits, 0
theory::arith::FC::Construction, 0.000000
theory::arith::FC::FoundSat, 0
theory::arith::FC::FoundUnsat, 0
theory::arith::FC::Missed, 0
theory::arith::FC::Timer, 0.000000
theory::arith::FC::UpdateConflicts, 0
theory::arith::FC::initialProcessTime, 0.000000
theory::arith::FC::lastPivots, "0"
theory::arith::FC::selectUpdateForDualLike, 0.000000
theory::arith::FC::selectUpdateForPrimal, 0.000000
theory::arith::SOI::ConfMin::num, 0
theory::arith::SOI::Conflict::Minimization, 0.000000
theory::arith::SOI::Construction, 0.000000
theory::arith::SOI::FoundSat, 0
theory::arith::SOI::FoundUnsat, 0
theory::arith::SOI::HasToBeMin, 0
theory::arith::SOI::MaybeNotMin, 0
theory::arith::SOI::Missed, 0
theory::arith::SOI::Time, 0.000000
theory::arith::SOI::UpdateConflicts, 0
theory::arith::SOI::initialProcessTime, 0.000000
theory::arith::SOI::lastPivots, "0"
theory::arith::SOI::selectSOI, 0.000000
theory::arith::UserVariables, 56
theory::arith::adjTime, 1.088907
theory::arith::attempt::conflicts, 0
theory::arith::attempt::queueTime, 0.000000
theory::arith::attempt::searchTime, 0.000000
theory::arith::bound::boundComputations, 0
theory::arith::bound::boundPropagations, 0
theory::arith::bound::time, 0.004076
theory::arith::cd::unatePropagateCalls, 310
theory::arith::cd::unatePropagateImplications, 47
theory::arith::checkTime, 7.808885
theory::arith::computeCareGraphTime, 0.000000
theory::arith::conflicts, 94
theory::arith::congruence::conflicts, 0
theory::arith::congruence::equalsConstantCalls, 114
theory::arith::congruence::propagateConstraints, 0
theory::arith::congruence::propagations, 130
theory::arith::congruence::watchedVariableIsNotZero, 31
theory::arith::congruence::watchedVariableIsZero, 0
theory::arith::congruence::watchedVariables, 6
theory::arith::currSetToSmaller, 0
theory::arith::dio::conflictCalls, 29
theory::arith::dio::conflictTimer, 0.004719
theory::arith::dio::conflicts, 0
theory::arith::dio::cutCalls, 22
theory::arith::dio::cutTimer, 0.029344
theory::arith::dio::cuts, 6
theory::arith::dual::UpdateConflicts, 0
theory::arith::dual::findConflictOnTheQueueTime, 0.043192
theory::arith::dual::lastPivots, "0"
theory::arith::dual::recentViolationCatches, 94
theory::arith::dual::searchTime, 7.683404
theory::arith::dual::simplexConflicts, 0
theory::arith::externalBranchAndBounds, 23
theory::arith::forcing::time, 0.000000
theory::arith::initialTableauSize, 631
theory::arith::iteConstantApplications, 0
theory::arith::iteMinMaxApplications, 0
theory::arith::lemmas, 75
theory::arith::newPropTimer, 0.000254
theory::arith::pivotTime, 7.636363
theory::arith::pivots, 1398
theory::arith::pivots::sat, "[]"
theory::arith::pivots::unknown, "[]"
theory::arith::pivots::unsat, "[]"
theory::arith::ppRewriteTimer, 0.002554
theory::arith::pqueue::enqueues, 0
theory::arith::pqueue::enqueuesCollection, 0
theory::arith::pqueue::enqueuesCollectionDuplicates, 0
theory::arith::pqueue::enqueuesDiffMode, 0
theory::arith::pqueue::enqueuesVarOrderMode, 0
theory::arith::pqueue::enqueuesVarOrderModeDuplicates, 0
theory::arith::presolveTime, 0.000487
theory::arith::propagations, 105
theory::arith::requirePhase, 0
theory::arith::restartDemands, 0
theory::arith::restartTimer, 0.000000
theory::arith::simplifyTimer, 0.000479
theory::arith::smallerSetToCurr, 0
theory::arith::staticLearningTimer, 0.005482
theory::arith::status::avgUnknownsInARow, 0.000000
theory::arith::status::commitsOnConflicts, 28
theory::arith::status::maxUnknownsInARow, 0
theory::arith::status::nontrivialSatChecks, 164
theory::arith::status::revertsOnConflicts, 0
theory::arith::status::unknowns, 0
theory::arith::updates, 1438
theory::arith::weakening::attempts, 94
theory::arith::weakening::success, 24
theory::arith::weakening::time, 0.005896
theory::arith::weakening::total, 29
theory::arith::z::approx::cuts::branch::attempted, 0
theory::arith::z::approx::cuts::gmi::attempted, 0
theory::arith::z::approx::cuts::mir::attempted, 0
theory::arith::z::approx::cuts::proofs, 0
theory::arith::z::approx::cuts::proofs::failed, 0
theory::arith::z::approx::cuts::reconstructed, 0
theory::arith::z::approx::cuts::reconstructed::failed, 0
theory::arith::z::approx::exhausted::branches, 0
theory::arith::z::approx::exhausted::exec, 0
theory::arith::z::approx::exhausted::pivots, 0
theory::arith::z::approx::external::branches, 0
theory::arith::z::approx::external::calls, 0
theory::arith::z::approx::external::cuts, 0
theory::arith::z::approx::external::cuts::rejected, 0
theory::arith::z::approx::inSolverInteger, 0
theory::arith::z::approx::lp::timer, 0.000000
theory::arith::z::approx::mip::timer, 0.000000
theory::arith::z::approx::replay::cuts::rejected, 0
theory::arith::z::approx::replay::log::timer, 0.000000
theory::arith::z::approx::replay::rec, 0
theory::arith::z::approx::replay::rec::branch::closefailures, 0
theory::arith::z::approx::replay::rec::branch::skips, 0
theory::arith::z::approx::replay::rec::earlyexit, 0
theory::arith::z::approx::replay::rec::escalation, 0
theory::arith::z::approx::replay::rec::leaf::closefailures, 0
theory::arith::z::approx::replay::simplex::timer, 0.000000
theory::arith::z::approxDisabled, 0
theory::arith::z::arith::cuts::applyRowsDeleted, 0
theory::arith::z::arith::paniclemmas, 0
theory::arith::z::arith::relax::calls, 0
theory::arith::z::arith::relax::exhausted, 0
theory::arith::z::arith::relax::feasible::failures, 0
theory::arith::z::arith::relax::feasible::res, 0
theory::arith::z::arith::relax::infeasible, 0
theory::arith::z::arith::relax::infeasible::failures, 0
theory::arith::z::arith::relax::other, 0
theory::arith::z::mip::branch::proof::failed, 0
theory::arith::z::mip::proofs::attempted, 0
theory::arith::z::mip::proofs::successful, 0
theory::arith::z::replayAttemptFailed, 0
theory::arith::z::solveInt::calls, 0
theory::arith::z::solveInt::calls::standardEffort, 0
theory::arith::z::solveInt::models::attempts, 0
theory::arith::z::solveInt::timer, 0.000000
theory::arith::z::solveRealRelax::timer, 7.694706
theory::arith::zzz::arith::substitutions, 0
theory::arith::zzz::solveInt::models::successful, 0
theory::arrays::avgInStoresListLength, 0.000000
theory::arrays::avgIndexListLength, 0.000000
theory::arrays::avgStoresListLength, 0.000000
theory::arrays::callsMergeInfo, 0
theory::arrays::checkTime, 0.000026
theory::arrays::computeCareGraphTime, 0.000005
theory::arrays::conflicts, 0
theory::arrays::constantTermsCount, 0
theory::arrays::functionTermsCount, 0
theory::arrays::infoTableSize, 0
theory::arrays::lemmas, 0
theory::arrays::listsCount, 0
theory::arrays::maxList, 0
theory::arrays::mayEqual::constantTermsCount, 0
theory::arrays::mayEqual::functionTermsCount, 0
theory::arrays::mayEqual::mergesCount, 0
theory::arrays::mayEqual::termsCount, 2
theory::arrays::mergeInfoTimer, 0.000000
theory::arrays::mergesCount, 0
theory::arrays::number of Ext lemmas, 0
theory::arrays::number of Row lemmas, 0
theory::arrays::number of calls to setNonLinear, 0
theory::arrays::number of explanations, 0
theory::arrays::number of getModelVal conflicts, 0
theory::arrays::number of getModelVal splits, 0
theory::arrays::number of propagations, 0
theory::arrays::number of setModelVal conflicts, 0
theory::arrays::number of setModelVal splits, 0
theory::arrays::number of shared array var splits, 0
theory::arrays::pp::constantTermsCount, 0
theory::arrays::pp::functionTermsCount, 0
theory::arrays::pp::mergesCount, 0
theory::arrays::pp::termsCount, 2
theory::arrays::propagations, 0
theory::arrays::requirePhase, 0
theory::arrays::restartDemands, 0
theory::arrays::termsCount, 2
theory::bool::checkTime, 0.000000
theory::bool::computeCareGraphTime, 0.000000
theory::bool::conflicts, 0
theory::bool::lemmas, 0
theory::bool::propagations, 0
theory::bool::requirePhase, 0
theory::bool::restartDemands, 0
theory::builtin::checkTime, 0.000000
theory::builtin::computeCareGraphTime, 0.000000
theory::builtin::conflicts, 0
theory::builtin::lemmas, 0
theory::builtin::propagations, 0
theory::builtin::requirePhase, 0
theory::builtin::restartDemands, 0
theory::bv::AvgBVConflictSize, 0.000000
theory::bv::BitblastSolver::NumCallsToCheck, 0
theory::bv::BitblastSolver::NumTimesLemmasBB, 0
theory::bv::CoreSolver::NumCallsToCheck, 0
theory::bv::CoreSolver::SlicerEnabled, "0"
theory::bv::NumFullCheckCalls, 0
theory::bv::NumMultSliceApplied, 0
theory::bv::NumSolveSubstitutions, 0
theory::bv::NumStandardCheckCalls, 0
theory::bv::abstraction::AbstractionTime, 0.000000
theory::bv::abstraction::NumArgsSkolemized, 0
theory::bv::abstraction::NumFunctionsAbstracted, 0
theory::bv::algebraic::BitblastTimer, 0.000000
theory::bv::algebraic::NumAtomSatClauses, 0
theory::bv::algebraic::NumBitblastedAtoms, 0
theory::bv::algebraic::NumBitblastedTerms, 0
theory::bv::algebraic::NumBitblastingPropagations, 0
theory::bv::algebraic::NumCallsToCheck, 0
theory::bv::algebraic::NumExplainedPropagations, 0
theory::bv::algebraic::NumSat, 0
theory::bv::algebraic::NumSimplifiesToFalse, 0
theory::bv::algebraic::NumSimplifiesToTrue, 0
theory::bv::algebraic::NumTermSatClauses, 0
theory::bv::algebraic::NumUnknown, 0
theory::bv::algebraic::NumUnsat, 0
theory::bv::algebraic::SolveTime, 0.000000
theory::bv::algebraic::UseHeuristic, 0.200000
theory::bv::algebraic::bvminisat::calls_to_solve, 0
theory::bv::algebraic::bvminisat::clauses_literals, 0
theory::bv::algebraic::bvminisat::conflicts, 0
theory::bv::algebraic::bvminisat::decisions, 0
theory::bv::algebraic::bvminisat::eliminated_vars, 0
theory::bv::algebraic::bvminisat::learnts_literals, 0
theory::bv::algebraic::bvminisat::max_literals, 0
theory::bv::algebraic::bvminisat::propagations, 0
theory::bv::algebraic::bvminisat::rnd_decisions, 0
theory::bv::algebraic::bvminisat::solve_time, 0.000000
theory::bv::algebraic::bvminisat::starts, 0
theory::bv::algebraic::bvminisat::tot_literals, 0
theory::bv::checkTime, 0.000000
theory::bv::computeCareGraphTime, 0.000000
theory::bv::conflicts, 0
theory::bv::ee::constantTermsCount, 0
theory::bv::ee::functionTermsCount, 0
theory::bv::ee::mergesCount, 0
theory::bv::ee::termsCount, 2
theory::bv::inequality::NumCallsToCheck, 0
theory::bv::inequality::SolveTime, 0.000000
theory::bv::lazy::BitblastTimer, 0.000000
theory::bv::lazy::NumAtomSatClauses, 0
theory::bv::lazy::NumBitblastedAtoms, 0
theory::bv::lazy::NumBitblastedTerms, 0
theory::bv::lazy::NumBitblastingPropagations, 0
theory::bv::lazy::NumExplainedPropagations, 0
theory::bv::lazy::NumTermSatClauses, 0
theory::bv::lazy::bvminisat::calls_to_solve, 0
theory::bv::lazy::bvminisat::clauses_literals, 0
theory::bv::lazy::bvminisat::conflicts, 0
theory::bv::lazy::bvminisat::decisions, 0
theory::bv::lazy::bvminisat::eliminated_vars, 0
theory::bv::lazy::bvminisat::learnts_literals, 0
theory::bv::lazy::bvminisat::max_literals, 0
theory::bv::lazy::bvminisat::propagations, 0
theory::bv::lazy::bvminisat::rnd_decisions, 0
theory::bv::lazy::bvminisat::solve_time, 0.000000
theory::bv::lazy::bvminisat::starts, 0
theory::bv::lazy::bvminisat::tot_literals, 0
theory::bv::lemmas, 0
theory::bv::propagations, 0
theory::bv::requirePhase, 0
theory::bv::restartDemands, 0
theory::bv::slicer::AverageFindDepth, 0.000000
theory::bv::slicer::NumEqualitiesAdded, "0"
theory::bv::slicer::NumMerges, 0
theory::bv::slicer::NumRepresentatives, 0
theory::bv::slicer::NumSplits, 0
theory::bv::solveTimer, 0.000000
theory::bv::weightComputationTimer, 0.000000
theory::datatypes::checkTime, 0.000000
theory::datatypes::computeCareGraphTime, 0.000000
theory::datatypes::conflicts, 0
theory::datatypes::constantTermsCount, 0
theory::datatypes::functionTermsCount, 0
theory::datatypes::lemmas, 0
theory::datatypes::mergesCount, 0
theory::datatypes::propagations, 0
theory::datatypes::requirePhase, 0
theory::datatypes::restartDemands, 0
theory::datatypes::termsCount, 2
theory::fp::checkTime, 0.000000
theory::fp::computeCareGraphTime, 0.000000
theory::fp::conflicts, 0
theory::fp::ee::constantTermsCount, 0
theory::fp::ee::functionTermsCount, 0
theory::fp::ee::mergesCount, 0
theory::fp::ee::termsCount, 2
theory::fp::lemmas, 0
theory::fp::propagations, 0
theory::fp::requirePhase, 0
theory::fp::restartDemands, 0
theory::master::constantTermsCount, 0
theory::master::functionTermsCount, 17
theory::master::mergesCount, 131
theory::master::termsCount, 77
theory::quantifiers::checkTime, 0.000037
theory::quantifiers::computeCareGraphTime, 0.000000
theory::quantifiers::conflicts, 0
theory::quantifiers::lemmas, 0
theory::quantifiers::propagations, 0
theory::quantifiers::requirePhase, 0
theory::quantifiers::restartDemands, 0
theory::sep::checkTime, 0.000000
theory::sep::computeCareGraphTime, 0.000000
theory::sep::conflicts, 0
theory::sep::ee::constantTermsCount, 0
theory::sep::ee::functionTermsCount, 0
theory::sep::ee::mergesCount, 0
theory::sep::ee::termsCount, 2
theory::sep::lemmas, 0
theory::sep::propagations, 0
theory::sep::requirePhase, 0
theory::sep::restartDemands, 0
theory::sets::checkTime, 0.000000
theory::sets::computeCareGraphTime, 0.000000
theory::sets::conflicts, 0
theory::sets::ee::constantTermsCount, 0
theory::sets::ee::functionTermsCount, 0
theory::sets::ee::mergesCount, 0
theory::sets::ee::termsCount, 2
theory::sets::getModelValueTime, 0.000000
theory::sets::leaves, 0
theory::sets::leaves-max, 0
theory::sets::lemmas, 0
theory::sets::lemmas::disequality, 0
theory::sets::lemmas::member, 0
theory::sets::merge1or2, 0
theory::sets::merge3, 0
theory::sets::merge_nodes::time, 0.000000
theory::sets::processCard2::time, 0.000000
theory::sets::propagations, 0
theory::sets::requirePhase, 0
theory::sets::restartDemands, 0
theory::sets::vertices, 0
theory::sets::vertices-max, 0
theory::shared_terms, 0
theory::strings::NumOfDiseqSplits, 0
theory::strings::NumOfEqSplits, 0
theory::strings::NumOfLoops, 0
theory::strings::NumOfSplitOnDemands, 0
theory::strings::checkTime, 0.000000
theory::strings::computeCareGraphTime, 0.000000
theory::strings::conflicts, 0
theory::strings::constantTermsCount, 0
theory::strings::functionTermsCount, 0
theory::strings::lemmas, 0
theory::strings::mergesCount, 0
theory::strings::propagations, 0
theory::strings::requirePhase, 0
theory::strings::restartDemands, 0
theory::strings::termsCount, 2
theory::uf::checkTime, 0.000575
theory::uf::computeCareGraphTime, 0.000011
theory::uf::conflicts, 0
theory::uf::ee::constantTermsCount, 0
theory::uf::ee::functionTermsCount, 16
theory::uf::ee::mergesCount, 105
theory::uf::ee::termsCount, 76
theory::uf::lemmas, 0
theory::uf::propagations, 105
theory::uf::requirePhase, 0
theory::uf::restartDemands, 0
theory::uf::symmetry_breaker::clauses, 0
theory::uf::symmetry_breaker::permutationSetsConsidered, 0
theory::uf::symmetry_breaker::permutationSetsInvariant, 0
theory::uf::symmetry_breaker::timers::initNormalization, 0.000000
theory::uf::symmetry_breaker::timers::invariantByPermutations, 0.000000
theory::uf::symmetry_breaker::timers::selectTerms, 0.000000
theory::uf::symmetry_breaker::units, 0
driver::filename, smtlib_files/balance_scale_lin_eq_ia.smt2
driver::sat/unsat, sat
driver::totalTime, 8.093687628